Experiments/Data/DNeg_n50k3j4.mps
NAME	DNeg_n50k3j4
ROWS
 N 	 OBJROW
 L	 R0 
COLUMNS
 C0	 OBJROW 	-51	 R0 	2	
 C1	 OBJROW 	-1	 R0 	6	
 C2	 OBJROW 	-89	 R0 	6	
 C3	 OBJROW 	-85	 R0 	7	
 C4	 OBJROW 	-82	 R0 	8	
 C5	 OBJROW 	-79	 R0 	13	
 C6	 OBJROW 	-85	 R0 	13	
 C7	 OBJROW 	-91	 R0 	15	
 C8	 OBJROW 	-43	 R0 	17	
 C9	 OBJROW 	-88	 R0 	17	
 C10	 OBJROW 	-60	 R0 	18	
 C11	 OBJROW 	-15	 R0 	20	
 C12	 OBJROW 	-59	 R0 	22	
 C13	 OBJROW 	-45	 R0 	27	
 C14	 OBJROW 	-66	 R0 	32	
 C15	 OBJROW 	-3	 R0 	33	
 C16	 OBJROW 	-29	 R0 	35	
 C17	 OBJROW 	-42	 R0 	35	
 C18	 OBJROW 	-23	 R0 	36	
 C19	 OBJROW 	-83	 R0 	37	
 C20	 OBJROW 	-67	 R0 	39	
 C21	 OBJROW 	-26	 R0 	42	
 C22	 OBJROW 	-2	 R0 	43	
 C23	 OBJROW 	-60	 R0 	44	
 C24	 OBJROW 	-86	 R0 	51	
 C25	 OBJROW 	-86	 R0 	52	
 C26	 OBJROW 	-72	 R0 	53	
 C27	 OBJROW 	-28	 R0 	55	
 C28	 OBJROW 	-32	 R0 	55	
 C29	 OBJROW 	-24	 R0 	56	
 C30	 OBJROW 	-15	 R0 	60	
 C31	 OBJROW 	-36	 R0 	62	
 C32	 OBJROW 	-26	 R0 	63	
 C33	 OBJROW 	-75	 R0 	63	
 C34	 OBJROW 	-55	 R0 	64	
 C35	 OBJROW 	-15	 R0 	65	
 C36	 OBJROW 	-95	 R0 	71	
 C37	 OBJROW 	-80	 R0 	74	
 C38	 OBJROW 	-26	 R0 	75	
 C39	 OBJROW 	-27	 R0 	76	
 C40	 OBJROW 	-32	 R0 	80	
 C41	 OBJROW 	-51	 R0 	80	
 C42	 OBJROW 	-10	 R0 	81	
 C43	 OBJROW 	-28	 R0 	87	
 C44	 OBJROW 	-5	 R0 	87	
 C45	 OBJROW 	-42	 R0 	87	
 C46	 OBJROW 	-6	 R0 	90	
 C47	 OBJROW 	-7	 R0 	96	
 C48	 OBJROW 	-55	 R0 	96	
 C49	 OBJROW 	-2	 R0 	99	
RHS
 RHS	 R0 	 890	
BOUNDS
 BV BOUND	C0	 1	
 BV BOUND	C1	 1	
 BV BOUND	C2	 1	
 BV BOUND	C3	 1	
 BV BOUND	C4	 1	
 BV BOUND	C5	 1	
 BV BOUND	C6	 1	
 BV BOUND	C7	 1	
 BV BOUND	C8	 1	
 BV BOUND	C9	 1	
 BV BOUND	C10	 1	
 BV BOUND	C11	 1	
 BV BOUND	C12	 1	
 BV BOUND	C13	 1	
 BV BOUND	C14	 1	
 BV BOUND	C15	 1	
 BV BOUND	C16	 1	
 BV BOUND	C17	 1	
 BV BOUND	C18	 1	
 BV BOUND	C19	 1	
 BV BOUND	C20	 1	
 BV BOUND	C21	 1	
 BV BOUND	C22	 1	
 BV BOUND	C23	 1	
 BV BOUND	C24	 1	
 BV BOUND	C25	 1	
 BV BOUND	C26	 1	
 BV BOUND	C27	 1	
 BV BOUND	C28	 1	
 BV BOUND	C29	 1	
 BV BOUND	C30	 1	
 BV BOUND	C31	 1	
 BV BOUND	C32	 1	
 BV BOUND	C33	 1	
 BV BOUND	C34	 1	
 BV BOUND	C35	 1	
 BV BOUND	C36	 1	
 BV BOUND	C37	 1	
 BV BOUND	C38	 1	
 BV BOUND	C39	 1	
 BV BOUND	C40	 1	
 BV BOUND	C41	 1	
 BV BOUND	C42	 1	
 BV BOUND	C43	 1	
 BV BOUND	C44	 1	
 BV BOUND	C45	 1	
 BV BOUND	C46	 1	
 BV BOUND	C47	 1	
 BV BOUND	C48	 1	
 BV BOUND	C49	 1	
ENDATA
