Experiments/Data/DNeg_n50k3j4.txt
N 50
M 51
LC 50
LC 51
LC 52
LC 53
LC 54
LC 55
LC 56
LC 57
LC 58
LC 59
LC 60
LC 61
LC 62
LC 63
LC 64
LC 65
LC 66
LC 67
LC 68
LC 69
LC 70
LC 71
LC 72
LC 73
LC 74
LC 75
LC 76
LC 77
LC 78
LC 79
LC 80
LC 81
LC 82
LC 83
LC 84
LC 85
LC 86
LC 87
LC 88
LC 89
LC 90
LC 91
LC 92
LC 93
LC 94
LC 95
LC 96
LC 97
LC 98
LC 99
LR 1
LR 2
LR 3
LR 4
LR 5
LR 6
LR 7
LR 8
LR 9
LR 10
LR 11
LR 12
LR 13
LR 14
LR 15
LR 16
LR 17
LR 18
LR 19
LR 20
LR 21
LR 22
LR 23
LR 24
LR 25
LR 26
LR 27
LR 28
LR 29
LR 30
LR 31
LR 32
LR 33
LR 34
LR 35
LR 36
LR 37
LR 38
LR 39
LR 40
LR 41
LR 42
LR 43
LR 44
LR 45
LR 46
LR 47
LR 48
LR 49
LR 50
LR 51
LO -51
LO -1
LO -89
LO -85
LO -82
LO -79
LO -85
LO -91
LO -43
LO -88
LO -60
LO -15
LO -59
LO -45
LO -66
LO -3
LO -29
LO -42
LO -23
LO -83
LO -67
LO -26
LO -2
LO -60
LO -86
LO -86
LO -72
LO -28
LO -32
LO -24
LO -15
LO -36
LO -26
LO -75
LO -55
LO -15
LO -95
LO -80
LO -26
LO -27
LO -32
LO -51
LO -10
LO -28
LO -5
LO -42
LO -6
LO -7
LO -55
LO -2
OS 1
IC 91
IC 71
IC 96
IC 65
IC 61
IC 33
IC 66
IC 46
IC 93
IC 57
IC 3
IC 37
IC 67
IC 47
IC 90
IC 25
IC 22
IC 55
IC 83
IC 24
IC 70
IC 99
IC 63
IC 72
IC 66
IC 3
IC 83
IC 32
IC 39
IC 60
IC 48
IC 18
IC 29
IC 85
IC 64
IC 60
IC 17
IC 23
IC 64
IC 2
IC 62
IC 30
IC 31
IC 54
IC 23
IC 4
IC 23
IC 37
IC 4
IC 88
IB 899
